CMD:
./solvers/bin/cadical --plain --no-reduce -t 1600 ./data/cnfs//qspiflash_dualflexpress_divfive-p079/qspiflash_dualflexpress_divfive-p079.31.cnf

c --- [ banner ] -------------------------------------------------------------
c 
c CaDiCaL SAT Solver
c Copyright (c) 2016-2024
c A. Biere, M. Fleury, N. Froleyks, K. Fazekas, F. Pollitt, T. Faller
c JKU Linz, University of Freiburg, TU Wien
c 
c Version 2.1.3 5296d3d2a9bf48c154ab2acb5e44625776d821bf
c g++ (Gentoo 12.3.1_p20230526 p2) 12.3.1 20230526 -Wall -Wextra -O3 -DNDEBUG
c Sat Aug 9 07:26:21 PDT 2025 Linux cedar2.int.cedar.computecanada.ca 5.14.0-362.24.2.el9_3.x86_64 x86_64
c 
c --- [ limit ] --------------------------------------------------------------
c 
c setting time limit to 1600 seconds real time (due to '-t 1600')
c 
c --- [ parsing input ] ------------------------------------------------------
c 
c reading DIMACS file from './data/cnfs//qspiflash_dualflexpress_divfive-p079/qspiflash_dualflexpress_divfive-p079.31.cnf'
c opening file to read './data/cnfs//qspiflash_dualflexpress_divfive-p079/qspiflash_dualflexpress_divfive-p079.31.cnf'
c found 'p cnf 95191 277107' header
c parsed 277107 clauses in 0.04 seconds process time
c 
c --- [ options ] ------------------------------------------------------------
c 
c   --compact=false                (different from default 'true')
c   --decompose=false              (different from default 'true')
c   --deduplicate=false            (different from default 'true')
c   --elim=false                   (different from default 'true')
c   --probe=false                  (different from default 'true')
c   --reduce=false                 (different from default 'true')
c   --subsume=false                (different from default 'true')
c   --ternary=false                (different from default 'true')
c   --transred=false               (different from default 'true')
c   --vivify=false                 (different from default 'true')
c 
c --- [ solving ] ------------------------------------------------------------
c 
c time measured in process time since initialization
c 
c  seconds  reductions  redundant  irredundant
c         MB    restarts       trail       variables
c          level   conflicts       glue         remaining
c 
c *  0.04 45  0 0   0    0    0  0% 0 258234 83061 87%
c {  0.06 46  0 0   0    0    0  0% 0 258234 83061 87%
c i  0.06 46 14 0   0    9    8 17% 1 258234 83038 87%
c i  0.07 46 22 0   9  168  146 21% 3 258234 82524 87%
c i  0.11 47 35 0  58  476  428 25% 3 258234 82512 87%
c i  0.12 47 33 0  76  552  499 25% 4 258234 82508 87%
c i  0.12 47 33 0  77  560  506 25% 3 258234 82507 87%
c i  0.12 47 33 0  77  648  581 26% 3 258234 82493 87%
c i  0.12 47 33 0  77  652  584 26% 3 258234 82481 87%
c }  0.14 47 30 0  82 1000  882 27% 3 258234 82474 87%
c [  0.14 47  0 0  82 1000  882  0% 0 258234 82474 87%
c O  0.15 47 311 0  82 1003  885 37% 4 258234 82474 87%
c i  0.22 47 604 0  82 1662 1497 61% 5 258234 82473 87%
c i  0.30 47 361 0  83 2547 2299 44% 8 258234 82469 87%
c i  0.31 47 345 0  83 2622 2370 43% 8 258234 82160 86%
c ]  0.34 47 287 0  83 3002 2716 39% 8 258234 82160 86%
c {  0.34 47 30 0  83 3002 2716 27% 3 258234 82160 86%
c F  0.34 47 30 0  83 3004 2718 27% 3 258234 81972 86%
c i  0.34 47 30 0  98 3067 2777 27% 3 258234 81957 86%
c i  0.35 47 29 0 102 3087 2794 27% 3 258234 81945 86%
c 
c  seconds  reductions  redundant  irredundant
c         MB    restarts       trail       variables
c          level   conflicts       glue         remaining
c 
c i  0.35 47 29 0 102 3103 2807 26% 3 258234 81944 86%
c i  0.35 47 29 0 103 3115 2816 26% 3 258234 81932 86%
c i  0.36 47 28 0 120 3200 2893 26% 3 258234 81931 86%
c i  0.41 47 25 0 214 3646 3286 25% 4 258234 81927 86%
c i  0.41 47 25 0 216 3653 3292 25% 4 258234 81923 86%
c i  0.43 47 24 0 242 3800 3419 25% 4 258234 81921 86%
c i  0.43 47 24 0 243 3810 3427 24% 4 258234 81903 86%
c i  0.43 47 24 0 244 3812 3427 24% 4 258234 81901 86%
c i  0.43 47 24 0 250 3843 3446 24% 4 258234 81891 86%
c i  0.45 47 24 0 263 3932 3527 24% 4 258234 81873 86%
c i  0.45 47 24 0 276 4015 3599 24% 4 258234 81872 86%
c i  0.50 48 23 0 345 4337 3893 24% 4 258234 81868 86%
c i  0.50 48 23 0 345 4339 3894 24% 4 258234 81861 86%
c i  0.50 48 23 0 346 4344 3897 24% 4 258234 81849 86%
c i  0.50 48 23 0 346 4345 3897 24% 4 258234 81833 86%
c i  0.50 48 23 0 348 4362 3911 24% 4 258234 81802 86%
c i  0.50 48 23 0 356 4389 3935 24% 4 258234 81772 86%
c i  0.50 48 23 0 356 4398 3941 24% 4 258234 81761 86%
c i  0.52 48 22 0 364 4450 3986 24% 4 258234 81757 86%
c i  0.52 48 22 0 365 4459 3993 24% 4 258234 81753 86%
c 
c  seconds  reductions  redundant  irredundant
c         MB    restarts       trail       variables
c          level   conflicts       glue         remaining
c 
c i  0.53 48 22 0 384 4544 4059 24% 4 258234 81749 86%
c i  0.53 48 22 0 389 4564 4075 24% 4 258234 81745 86%
c i  0.53 48 22 0 389 4565 4075 24% 4 258234 81744 86%
c i  0.55 49 22 0 419 4683 4183 24% 5 258234 81740 86%
c i  0.56 49 22 0 423 4724 4217 24% 5 258234 81736 86%
c i  0.56 49 22 0 424 4726 4218 24% 5 258234 81732 86%
c i  0.56 49 22 0 430 4754 4242 24% 5 258234 81722 86%
c i  0.57 49 21 0 442 4807 4291 23% 5 258234 81718 86%
c i  0.60 49 21 0 487 5051 4491 23% 5 258234 81714 86%
c i  0.61 49 20 0 488 5153 4579 23% 5 258234 81710 86%
c i  0.62 49 20 0 495 5197 4619 23% 5 258234 81706 86%
c i  0.63 49 20 0 514 5321 4710 23% 5 258234 81666 86%
c i  0.63 49 20 0 515 5324 4712 23% 5 258234 81659 86%
c i  0.64 49 20 0 522 5447 4803 23% 5 258234 81361 85%
c i  0.65 49 19 0 524 5524 4864 23% 5 258234 81127 85%
c i  0.65 49 19 0 524 5532 4869 23% 5 258234 81123 85%
c i  0.66 49 19 0 524 5683 4974 23% 5 258234 80343 84%
c i  0.66 49 19 0 524 5685 4975 23% 5 258234 80087 84%
c i  0.66 49 19 0 524 5689 4977 23% 5 258234 76234 80%
c }  0.66 49 19 0 524 5691 4977 23% 5 258234 75470 79%
c 
c  seconds  reductions  redundant  irredundant
c         MB    restarts       trail       variables
c          level   conflicts       glue         remaining
c 
c 0  0.66 49 19 0 524 5691 4977 23% 5 258234 75470 79%
c 
c --- [ result ] -------------------------------------------------------------
c 
s UNSATISFIABLE
c 
c --- [ run-time profiling ] -------------------------------------------------
c 
c process time taken by individual solving procedures
c (percentage relative to process time for solving)
c 
c         0.62   99.98% search
c         0.41   65.96% unstable
c         0.19   30.98% stable
c         0.04    6.52% parse
c         0.02    3.04% lucky
c         0.00    0.00% simplify
c   =================================
c         0.62   93.82% solve
c 
c last line shows process time for solving
c (percentage relative to total process time)
c 
c --- [ statistics ] ---------------------------------------------------------
c 
c chronological:              2183        38.36 %  of conflicts
c conflicts:                  5691      9132.46    per second
c decisions:                 18452     29610.28    per second
c fixed:                     19687        20.68 %  of all variables
c learned:                    5427        95.36 %  per conflict
c learned_lits:             125185       100.00 %  learned literals
c minimized:                     0         0.00 %  learned literals
c shrunken:                  22591        18.05 %  learned literals
c minishrunken:              23623        18.87 %  learned literals
c otfs:                         49         0.86 %  of conflict
c propagations:           13513024        21.68 M  per second
c rephased:                      2      2845.50    interval
c restarts:                    524        10.86    interval
c stabilizing:                   1        35.16 %  of conflicts
c subsumed:                    398         0.15 %  of all clauses
c strengthened:                 48         0.02 %  of all clauses
c 
c seconds are measured in process time for solving
c 
c --- [ resources ] ----------------------------------------------------------
c 
c total process time since initialization:         0.66    seconds
c total real time since initialization:            0.67    seconds
c maximum resident set size of process:           48.67    MB
c 
c --- [ shutting down ] ------------------------------------------------------
c 
c exit 20
